problems/csplib-prob056/params/sonet-60-30-22-3832.param
language Essence 1.3
letting nnodes be 60
letting nrings be 30
letting capacity be 22
letting demand be 
{{1, 2},
{1, 4},
{1, 6},
{1, 7},
{1, 8},
{1, 11},
{1, 12},
{1, 15},
{1, 16},
{1, 17},
{1, 19},
{1, 22},
{1, 23},
{1, 25},
{1, 26},
{1, 29},
{1, 34},
{1, 37},
{1, 39},
{1, 41},
{1, 44},
{1, 46},
{1, 48},
{1, 51},
{1, 52},
{1, 55},
{1, 56},
{1, 58},
{1, 59},
{1, 60},
{2, 3},
{2, 5},
{2, 6},
{2, 8},
{2, 12},
{2, 13},
{2, 15},
{2, 16},
{2, 20},
{2, 21},
{2, 24},
{2, 27},
{2, 28},
{2, 30},
{2, 34},
{2, 37},
{2, 38},
{2, 39},
{2, 42},
{2, 47},
{2, 48},
{2, 51},
{2, 52},
{2, 53},
{2, 54},
{2, 56},
{2, 57},
{2, 59},
{3, 5},
{3, 8},
{3, 10},
{3, 11},
{3, 12},
{3, 13},
{3, 14},
{3, 19},
{3, 21},
{3, 22},
{3, 24},
{3, 26},
{3, 28},
{3, 31},
{3, 32},
{3, 33},
{3, 36},
{3, 37},
{3, 38},
{3, 40},
{3, 41},
{3, 42},
{3, 44},
{3, 46},
{3, 49},
{3, 50},
{3, 51},
{3, 52},
{3, 53},
{3, 54},
{3, 57},
{3, 59},
{3, 60},
{4, 7},
{4, 9},
{4, 12},
{4, 15},
{4, 21},
{4, 26},
{4, 27},
{4, 28},
{4, 30},
{4, 32},
{4, 33},
{4, 35},
{4, 36},
{4, 42},
{4, 43},
{4, 46},
{4, 49},
{4, 51},
{4, 52},
{4, 53},
{4, 54},
{4, 56},
{4, 58},
{4, 59},
{5, 6},
{5, 9},
{5, 11},
{5, 13},
{5, 14},
{5, 15},
{5, 17},
{5, 18},
{5, 21},
{5, 23},
{5, 25},
{5, 28},
{5, 29},
{5, 31},
{5, 34},
{5, 36},
{5, 39},
{5, 43},
{5, 47},
{5, 48},
{5, 51},
{5, 52},
{5, 53},
{5, 56},
{5, 57},
{6, 7},
{6, 9},
{6, 10},
{6, 12},
{6, 13},
{6, 14},
{6, 16},
{6, 19},
{6, 20},
{6, 21},
{6, 22},
{6, 24},
{6, 25},
{6, 26},
{6, 27},
{6, 31},
{6, 34},
{6, 36},
{6, 38},
{6, 41},
{6, 42},
{6, 45},
{6, 47},
{6, 51},
{6, 52},
{6, 55},
{6, 58},
{6, 60},
{7, 8},
{7, 10},
{7, 11},
{7, 12},
{7, 13},
{7, 17},
{7, 18},
{7, 19},
{7, 20},
{7, 22},
{7, 24},
{7, 27},
{7, 28},
{7, 30},
{7, 31},
{7, 32},
{7, 34},
{7, 37},
{7, 38},
{7, 39},
{7, 40},
{7, 42},
{7, 43},
{7, 45},
{7, 50},
{7, 52},
{7, 54},
{7, 55},
{7, 58},
{8, 9},
{8, 13},
{8, 16},
{8, 17},
{8, 23},
{8, 24},
{8, 25},
{8, 28},
{8, 30},
{8, 33},
{8, 34},
{8, 35},
{8, 36},
{8, 39},
{8, 41},
{8, 42},
{8, 44},
{8, 46},
{8, 48},
{8, 49},
{8, 51},
{8, 53},
{8, 57},
{8, 58},
{8, 59},
{9, 11},
{9, 14},
{9, 15},
{9, 18},
{9, 19},
{9, 20},
{9, 21},
{9, 22},
{9, 24},
{9, 25},
{9, 27},
{9, 31},
{9, 33},
{9, 34},
{9, 36},
{9, 37},
{9, 38},
{9, 43},
{9, 51},
{9, 52},
{9, 54},
{9, 55},
{9, 58},
{10, 11},
{10, 12},
{10, 13},
{10, 14},
{10, 15},
{10, 16},
{10, 18},
{10, 19},
{10, 20},
{10, 23},
{10, 26},
{10, 27},
{10, 28},
{10, 29},
{10, 32},
{10, 33},
{10, 34},
{10, 37},
{10, 39},
{10, 42},
{10, 46},
{10, 49},
{10, 50},
{10, 52},
{10, 54},
{10, 55},
{11, 12},
{11, 13},
{11, 15},
{11, 16},
{11, 17},
{11, 18},
{11, 23},
{11, 26},
{11, 27},
{11, 28},
{11, 30},
{11, 31},
{11, 32},
{11, 37},
{11, 39},
{11, 40},
{11, 41},
{11, 42},
{11, 44},
{11, 46},
{11, 49},
{11, 54},
{11, 55},
{11, 56},
{11, 57},
{11, 60},
{12, 14},
{12, 16},
{12, 17},
{12, 18},
{12, 21},
{12, 24},
{12, 25},
{12, 26},
{12, 34},
{12, 36},
{12, 37},
{12, 38},
{12, 43},
{12, 49},
{12, 50},
{12, 51},
{12, 52},
{12, 58},
{12, 59},
{12, 60},
{13, 14},
{13, 17},
{13, 19},
{13, 21},
{13, 22},
{13, 24},
{13, 25},
{13, 26},
{13, 27},
{13, 31},
{13, 32},
{13, 34},
{13, 35},
{13, 36},
{13, 38},
{13, 39},
{13, 40},
{13, 41},
{13, 42},
{13, 44},
{13, 45},
{13, 46},
{13, 48},
{13, 49},
{13, 50},
{13, 52},
{13, 57},
{13, 58},
{14, 17},
{14, 18},
{14, 19},
{14, 22},
{14, 27},
{14, 28},
{14, 31},
{14, 39},
{14, 40},
{14, 42},
{14, 43},
{14, 45},
{14, 46},
{14, 47},
{14, 48},
{14, 50},
{14, 51},
{14, 52},
{14, 53},
{14, 54},
{14, 58},
{14, 59},
{14, 60},
{15, 16},
{15, 17},
{15, 23},
{15, 24},
{15, 25},
{15, 27},
{15, 30},
{15, 32},
{15, 33},
{15, 35},
{15, 36},
{15, 41},
{15, 43},
{15, 46},
{15, 47},
{15, 48},
{15, 49},
{15, 50},
{15, 51},
{15, 53},
{15, 56},
{15, 59},
{15, 60},
{16, 17},
{16, 20},
{16, 26},
{16, 28},
{16, 29},
{16, 30},
{16, 32},
{16, 34},
{16, 36},
{16, 39},
{16, 43},
{16, 44},
{16, 45},
{16, 50},
{16, 51},
{16, 52},
{16, 53},
{16, 54},
{16, 56},
{17, 18},
{17, 20},
{17, 21},
{17, 22},
{17, 23},
{17, 24},
{17, 25},
{17, 27},
{17, 29},
{17, 33},
{17, 35},
{17, 41},
{17, 43},
{17, 44},
{17, 46},
{17, 50},
{17, 51},
{17, 52},
{17, 53},
{17, 59},
{17, 60},
{18, 19},
{18, 20},
{18, 22},
{18, 24},
{18, 25},
{18, 26},
{18, 29},
{18, 30},
{18, 33},
{18, 40},
{18, 43},
{18, 45},
{18, 46},
{18, 47},
{18, 49},
{18, 51},
{18, 53},
{18, 57},
{18, 60},
{19, 20},
{19, 23},
{19, 24},
{19, 25},
{19, 26},
{19, 28},
{19, 29},
{19, 31},
{19, 32},
{19, 34},
{19, 35},
{19, 37},
{19, 38},
{19, 40},
{19, 42},
{19, 46},
{19, 52},
{19, 53},
{19, 54},
{19, 55},
{19, 58},
{19, 59},
{20, 21},
{20, 22},
{20, 23},
{20, 27},
{20, 28},
{20, 29},
{20, 31},
{20, 34},
{20, 36},
{20, 37},
{20, 40},
{20, 42},
{20, 44},
{20, 45},
{20, 46},
{20, 47},
{20, 51},
{20, 52},
{20, 56},
{20, 58},
{20, 60},
{21, 22},
{21, 24},
{21, 26},
{21, 28},
{21, 30},
{21, 32},
{21, 37},
{21, 40},
{21, 42},
{21, 43},
{21, 47},
{21, 48},
{21, 51},
{21, 52},
{21, 53},
{22, 24},
{22, 29},
{22, 30},
{22, 34},
{22, 35},
{22, 37},
{22, 38},
{22, 39},
{22, 42},
{22, 45},
{22, 50},
{22, 51},
{22, 52},
{22, 54},
{22, 57},
{22, 59},
{23, 25},
{23, 26},
{23, 29},
{23, 30},
{23, 33},
{23, 34},
{23, 35},
{23, 37},
{23, 40},
{23, 41},
{23, 43},
{23, 46},
{23, 47},
{23, 49},
{23, 51},
{23, 52},
{23, 54},
{23, 55},
{23, 56},
{23, 58},
{23, 59},
{23, 60},
{24, 29},
{24, 30},
{24, 33},
{24, 34},
{24, 36},
{24, 38},
{24, 39},
{24, 44},
{24, 45},
{24, 47},
{24, 48},
{24, 49},
{24, 51},
{24, 53},
{24, 54},
{24, 55},
{24, 56},
{24, 57},
{24, 60},
{25, 27},
{25, 29},
{25, 31},
{25, 32},
{25, 34},
{25, 36},
{25, 37},
{25, 39},
{25, 40},
{25, 42},
{25, 43},
{25, 45},
{25, 46},
{25, 47},
{25, 50},
{25, 52},
{25, 53},
{25, 59},
{26, 29},
{26, 31},
{26, 32},
{26, 33},
{26, 35},
{26, 36},
{26, 39},
{26, 41},
{26, 42},
{26, 44},
{26, 45},
{26, 49},
{26, 51},
{26, 53},
{26, 54},
{26, 55},
{26, 56},
{26, 58},
{27, 28},
{27, 29},
{27, 33},
{27, 34},
{27, 37},
{27, 38},
{27, 40},
{27, 43},
{27, 45},
{27, 46},
{27, 47},
{27, 49},
{27, 52},
{27, 53},
{27, 55},
{27, 56},
{27, 57},
{27, 59},
{28, 29},
{28, 32},
{28, 34},
{28, 35},
{28, 37},
{28, 40},
{28, 42},
{28, 45},
{28, 46},
{28, 48},
{28, 49},
{28, 51},
{28, 53},
{28, 54},
{28, 55},
{28, 56},
{29, 30},
{29, 33},
{29, 35},
{29, 39},
{29, 42},
{29, 45},
{29, 46},
{29, 48},
{29, 50},
{29, 56},
{29, 57},
{29, 58},
{29, 59},
{30, 33},
{30, 37},
{30, 39},
{30, 40},
{30, 43},
{30, 45},
{30, 46},
{30, 47},
{30, 48},
{30, 49},
{30, 52},
{30, 54},
{30, 55},
{30, 58},
{30, 59},
{30, 60},
{31, 33},
{31, 34},
{31, 37},
{31, 38},
{31, 39},
{31, 41},
{31, 43},
{31, 44},
{31, 46},
{31, 47},
{31, 48},
{31, 49},
{31, 50},
{31, 53},
{31, 56},
{32, 33},
{32, 38},
{32, 41},
{32, 42},
{32, 46},
{32, 47},
{32, 48},
{32, 50},
{32, 53},
{32, 54},
{32, 55},
{32, 57},
{33, 38},
{33, 40},
{33, 41},
{33, 42},
{33, 45},
{33, 46},
{33, 49},
{33, 50},
{33, 53},
{33, 55},
{33, 56},
{33, 57},
{33, 58},
{34, 36},
{34, 37},
{34, 40},
{34, 41},
{34, 44},
{34, 45},
{34, 46},
{34, 48},
{34, 52},
{34, 53},
{34, 54},
{34, 55},
{34, 56},
{34, 58},
{34, 60},
{35, 36},
{35, 37},
{35, 42},
{35, 43},
{35, 46},
{35, 48},
{35, 49},
{35, 52},
{35, 54},
{35, 57},
{35, 58},
{35, 59},
{35, 60},
{36, 38},
{36, 39},
{36, 41},
{36, 45},
{36, 50},
{36, 52},
{36, 55},
{36, 58},
{36, 59},
{36, 60},
{37, 42},
{37, 43},
{37, 44},
{37, 51},
{37, 52},
{37, 53},
{37, 56},
{37, 57},
{37, 58},
{37, 59},
{38, 45},
{38, 46},
{38, 48},
{38, 49},
{38, 51},
{38, 52},
{38, 53},
{38, 56},
{38, 58},
{38, 59},
{39, 40},
{39, 42},
{39, 44},
{39, 49},
{39, 50},
{39, 51},
{39, 53},
{39, 55},
{39, 57},
{39, 58},
{40, 41},
{40, 42},
{40, 43},
{40, 47},
{40, 48},
{40, 50},
{40, 51},
{40, 54},
{40, 58},
{40, 59},
{40, 60},
{41, 42},
{41, 43},
{41, 44},
{41, 47},
{41, 50},
{41, 52},
{41, 54},
{41, 55},
{41, 56},
{41, 57},
{41, 60},
{42, 45},
{42, 46},
{42, 47},
{42, 48},
{42, 50},
{42, 54},
{42, 57},
{42, 58},
{42, 59},
{43, 44},
{43, 48},
{43, 50},
{43, 51},
{43, 52},
{43, 55},
{43, 56},
{43, 57},
{43, 59},
{43, 60},
{44, 45},
{44, 47},
{44, 55},
{44, 58},
{44, 59},
{45, 46},
{45, 49},
{45, 51},
{45, 52},
{45, 53},
{45, 54},
{45, 55},
{45, 56},
{45, 57},
{46, 50},
{46, 53},
{46, 57},
{47, 50},
{47, 53},
{47, 54},
{47, 56},
{47, 57},
{47, 58},
{48, 49},
{48, 50},
{48, 54},
{48, 56},
{48, 58},
{48, 59},
{48, 60},
{49, 52},
{49, 53},
{49, 55},
{49, 58},
{50, 53},
{50, 55},
{50, 59},
{50, 60},
{51, 52},
{51, 53},
{51, 54},
{51, 55},
{51, 57},
{51, 60},
{52, 53},
{52, 56},
{52, 59},
{53, 55},
{53, 57},
{53, 58},
{53, 60},
{54, 55},
{54, 59},
{55, 57},
{55, 58},
{55, 59},
{55, 60},
{57, 58},
{58, 59},
{59, 60}}
